g3 1 1 0	# problem inst_sans_ref
 30 5 1 0 0	# vars, constraints, objectives, ranges, eqns
 5 1	# nonlinear constraints, objectives
 0 0	# network constraints: nonlinear, linear
 30 30 30	# nonlinear vars in constraints, objectives, both
 0 0 0 1	# linear network variables; functions; arith, flags
 0 0 0 0 0	# discrete variables: binary, integer, nonlinear (b,c,o)
 150 30	# nonzeros in Jacobian, gradients
 0 0	# max name lengths: constraints, variables
 0 0 0 0 0	# common exprs: b,c,o,c1,o1
b
0 0 20
0 0 20
0 0 20
0 0 20
0 0 20
0 0 20
0 0 20
0 0 20
0 0 20
0 0 20
0 0 20
0 0 20
0 0 20
0 0 20
0 0 20
0 0 20
0 0 20
0 0 20
0 0 20
0 0 20
0 0 20
0 0 20
0 0 20
0 0 20
0 0 20
0 0 20
0 0 20
0 0 20
0 0 20
0 0 20
r
1 49160
1 44880
1 41640
1 43360
1 46880
C0
o54
233
o2
o2
n2
v0
v3
o2
o2
n3
v0
v4
o2
o2
n10
v0
v7
o2
o2
n3
v0
v9
o2
v0
v20
o2
o2
n8
v0
v23
o2
o2
n7
v0
v24
o2
o2
n3
v0
v25
o2
v0
v26
o2
o2
n5
v1
v6
o2
o2
n6
v1
v10
o2
o2
n2
v1
v15
o2
o2
n10
v1
v16
o2
o2
n6
v1
v25
o2
o2
n4
v1
v27
o2
o2
n6
v1
v28
o2
o2
n2
v2
v2
o2
o2
n6
v2
v18
o2
o2
n3
v2
v23
o2
o2
n2
v2
v24
o2
o2
n5
v2
v25
o2
v2
v28
o2
v2
v29
o2
o2
n2
v3
v0
o2
o2
n7
v3
v8
o2
o2
n8
v3
v12
o2
o2
n10
v3
v24
o2
o2
n6
v3
v27
o2
o2
n3
v3
v29
o2
o2
n3
v4
v0
o2
o2
n2
v4
v5
o2
o2
n9
v4
v11
o2
v4
v12
o2
v4
v20
o2
v4
v21
o2
o2
n7
v4
v24
o2
o2
n3
v4
v25
o2
o2
n6
v4
v26
o2
o2
n2
v5
v4
o2
o2
n6
v5
v5
o2
o2
n7
v5
v6
o2
o2
n3
v5
v10
o2
o2
n8
v5
v11
o2
o2
n8
v5
v14
o2
o2
n5
v5
v16
o2
o2
n6
v5
v20
o2
o2
n5
v5
v27
o2
o2
n5
v6
v1
o2
o2
n7
v6
v5
o2
o2
n5
v6
v7
o2
o2
n6
v6
v8
o2
o2
n9
v6
v11
o2
o2
n5
v6
v12
o2
o2
n3
v6
v14
o2
o2
n7
v6
v15
o2
o2
n3
v6
v26
o2
o2
n10
v7
v0
o2
o2
n5
v7
v6
o2
o2
n5
v7
v12
o2
o2
n4
v7
v19
o2
o2
n4
v7
v24
o2
o2
n7
v8
v3
o2
o2
n6
v8
v6
o2
o2
n9
v8
v12
o2
o2
n7
v8
v14
o2
v8
v17
o2
o2
n3
v8
v20
o2
o2
n3
v8
v24
o2
o2
n3
v9
v0
o2
o2
n3
v9
v12
o2
o2
n3
v9
v13
o2
o2
n5
v9
v20
o2
o2
n2
v9
v23
o2
o2
n8
v9
v27
o2
o2
n6
v10
v1
o2
o2
n3
v10
v5
o2
o2
n3
v10
v10
o2
o2
n8
v10
v12
o2
o2
n4
v10
v15
o2
o2
n3
v10
v17
o2
o2
n4
v10
v22
o2
o2
n7
v10
v23
o2
v10
v27
o2
o2
n8
v10
v28
o2
o2
n9
v11
v4
o2
o2
n8
v11
v5
o2
o2
n9
v11
v6
o2
o2
n7
v11
v13
o2
o2
n8
v11
v17
o2
o2
n6
v11
v18
o2
o2
n8
v11
v21
o2
o2
n4
v11
v24
o2
o2
n10
v11
v28
o2
o2
n8
v12
v3
o2
v12
v4
o2
o2
n5
v12
v6
o2
o2
n5
v12
v7
o2
o2
n9
v12
v8
o2
o2
n3
v12
v9
o2
o2
n8
v12
v10
o2
o2
n9
v12
v15
o2
o2
n2
v12
v19
o2
o2
n2
v12
v26
o2
o2
n4
v12
v28
o2
o2
n5
v12
v29
o2
o2
n3
v13
v9
o2
o2
n7
v13
v11
o2
o2
n2
v13
v21
o2
o2
n6
v13
v24
o2
o2
n8
v14
v5
o2
o2
n3
v14
v6
o2
o2
n7
v14
v8
o2
o2
n6
v14
v15
o2
o2
n7
v14
v17
o2
o2
n9
v14
v19
o2
o2
n7
v14
v20
o2
o2
n7
v14
v23
o2
o2
n7
v14
v27
o2
o2
n6
v14
v28
o2
o2
n2
v15
v1
o2
o2
n7
v15
v6
o2
o2
n4
v15
v10
o2
o2
n9
v15
v12
o2
o2
n6
v15
v14
o2
o2
n7
v15
v22
o2
o2
n9
v15
v27
o2
o2
n10
v16
v1
o2
o2
n5
v16
v5
o2
o2
n5
v16
v18
o2
o2
n7
v16
v22
o2
o2
n8
v16
v28
o2
v17
v8
o2
o2
n3
v17
v10
o2
o2
n8
v17
v11
o2
o2
n7
v17
v14
o2
o2
n9
v17
v19
o2
v17
v24
o2
o2
n8
v17
v29
o2
o2
n6
v18
v2
o2
o2
n6
v18
v11
o2
o2
n5
v18
v16
o2
o2
n6
v18
v18
o2
o2
n8
v18
v21
o2
o2
n10
v18
v22
o2
o2
n5
v18
v28
o2
o2
n4
v19
v7
o2
o2
n2
v19
v12
o2
o2
n9
v19
v14
o2
o2
n9
v19
v17
o2
o2
n6
v19
v19
o2
o2
n3
v19
v20
o2
o2
n3
v19
v22
o2
o2
n9
v19
v24
o2
v20
v0
o2
v20
v4
o2
o2
n6
v20
v5
o2
o2
n3
v20
v8
o2
o2
n5
v20
v9
o2
o2
n7
v20
v14
o2
o2
n3
v20
v19
o2
o2
n7
v20
v24
o2
o2
n3
v20
v26
o2
o2
n6
v20
v28
o2
v21
v4
o2
o2
n8
v21
v11
o2
o2
n2
v21
v13
o2
o2
n8
v21
v18
o2
o2
n8
v21
v21
o2
o2
n8
v21
v26
o2
o2
n4
v22
v10
o2
o2
n7
v22
v15
o2
o2
n7
v22
v16
o2
o2
n10
v22
v18
o2
o2
n3
v22
v19
o2
o2
n8
v23
v0
o2
o2
n3
v23
v2
o2
o2
n2
v23
v9
o2
o2
n7
v23
v10
o2
o2
n7
v23
v14
o2
o2
n10
v23
v26
o2
o2
n7
v24
v0
o2
o2
n2
v24
v2
o2
o2
n10
v24
v3
o2
o2
n7
v24
v4
o2
o2
n4
v24
v7
o2
o2
n3
v24
v8
o2
o2
n4
v24
v11
o2
o2
n6
v24
v13
o2
v24
v17
o2
o2
n9
v24
v19
o2
o2
n7
v24
v20
o2
o2
n2
v24
v26
o2
o2
n2
v24
v29
o2
o2
n3
v25
v0
o2
o2
n6
v25
v1
o2
o2
n5
v25
v2
o2
o2
n3
v25
v4
o2
o2
n8
v25
v25
o2
o2
n2
v25
v27
o2
v26
v0
o2
o2
n6
v26
v4
o2
o2
n3
v26
v6
o2
o2
n2
v26
v12
o2
o2
n3
v26
v20
o2
o2
n8
v26
v21
o2
o2
n10
v26
v23
o2
o2
n2
v26
v24
o2
o2
n7
v26
v29
o2
o2
n4
v27
v1
o2
o2
n6
v27
v3
o2
o2
n5
v27
v5
o2
o2
n8
v27
v9
o2
v27
v10
o2
o2
n7
v27
v14
o2
o2
n9
v27
v15
o2
o2
n2
v27
v25
o2
o2
n6
v28
v1
o2
v28
v2
o2
o2
n8
v28
v10
o2
o2
n10
v28
v11
o2
o2
n4
v28
v12
o2
o2
n6
v28
v14
o2
o2
n8
v28
v16
o2
o2
n5
v28
v18
o2
o2
n6
v28
v20
o2
o2
n3
v28
v29
o2
v29
v2
o2
o2
n3
v29
v3
o2
o2
n5
v29
v12
o2
o2
n8
v29
v17
o2
o2
n2
v29
v24
o2
o2
n7
v29
v26
o2
o2
n3
v29
v28
C1
o54
207
o2
o2
n9
v0
v3
o2
o2
n10
v0
v8
o2
o2
n2
v0
v13
o2
o2
n4
v0
v15
o2
o2
n2
v0
v21
o2
o2
n2
v0
v22
o2
o2
n4
v0
v23
o2
o2
n5
v0
v24
o2
v0
v26
o2
o2
n2
v1
v1
o2
o2
n6
v1
v4
o2
o2
n5
v1
v6
o2
o2
n7
v1
v8
o2
o2
n2
v1
v21
o2
v1
v26
o2
o2
n8
v2
v2
o2
o2
n5
v2
v4
o2
o2
n2
v2
v6
o2
o2
n2
v2
v7
o2
o2
n10
v2
v9
o2
o2
n3
v2
v16
o2
o2
n6
v2
v22
o2
o2
n9
v3
v0
o2
o2
n3
v3
v3
o2
o2
n5
v3
v5
o2
o2
n8
v3
v9
o2
o2
n9
v3
v13
o2
o2
n9
v3
v18
o2
o2
n3
v3
v20
o2
o2
n7
v3
v29
o2
o2
n6
v4
v1
o2
o2
n5
v4
v2
o2
o2
n4
v4
v7
o2
o2
n5
v4
v25
o2
o2
n3
v4
v28
o2
o2
n5
v5
v3
o2
o2
n2
v5
v5
o2
o2
n7
v5
v8
o2
o2
n8
v5
v15
o2
v5
v20
o2
o2
n10
v5
v24
o2
o2
n2
v5
v27
o2
o2
n7
v5
v28
o2
o2
n5
v6
v1
o2
o2
n2
v6
v2
o2
o2
n2
v6
v6
o2
o2
n6
v6
v10
o2
v6
v13
o2
o2
n3
v6
v29
o2
o2
n2
v7
v2
o2
o2
n4
v7
v4
o2
o2
n7
v7
v15
o2
o2
n10
v7
v20
o2
o2
n5
v7
v27
o2
o2
n10
v8
v0
o2
o2
n7
v8
v1
o2
o2
n7
v8
v5
o2
o2
n6
v8
v9
o2
o2
n9
v8
v13
o2
o2
n3
v8
v17
o2
o2
n9
v8
v22
o2
o2
n5
v8
v23
o2
o2
n3
v8
v26
o2
o2
n3
v8
v29
o2
o2
n10
v9
v2
o2
o2
n8
v9
v3
o2
o2
n6
v9
v8
o2
o2
n3
v9
v16
o2
o2
n4
v9
v17
o2
o2
n2
v9
v19
o2
o2
n9
v9
v24
o2
o2
n6
v10
v6
o2
o2
n3
v10
v10
o2
o2
n6
v10
v14
o2
o2
n3
v10
v16
o2
o2
n7
v10
v18
o2
o2
n6
v10
v19
o2
o2
n6
v11
v11
o2
o2
n7
v11
v15
o2
o2
n9
v11
v16
o2
o2
n7
v11
v17
o2
o2
n7
v11
v22
o2
o2
n5
v11
v23
o2
o2
n8
v11
v26
o2
o2
n9
v12
v23
o2
o2
n7
v12
v24
o2
v12
v28
o2
o2
n2
v13
v0
o2
o2
n9
v13
v3
o2
v13
v6
o2
o2
n9
v13
v8
o2
o2
n6
v13
v14
o2
o2
n2
v13
v24
o2
o2
n4
v13
v26
o2
o2
n6
v14
v10
o2
o2
n6
v14
v13
o2
o2
n10
v14
v16
o2
o2
n4
v14
v20
o2
o2
n9
v14
v21
o2
o2
n3
v14
v28
o2
o2
n4
v15
v0
o2
o2
n8
v15
v5
o2
o2
n7
v15
v7
o2
o2
n7
v15
v11
o2
o2
n7
v15
v23
o2
o2
n10
v15
v28
o2
o2
n3
v16
v2
o2
o2
n3
v16
v9
o2
o2
n3
v16
v10
o2
o2
n9
v16
v11
o2
o2
n10
v16
v14
o2
o2
n3
v16
v23
o2
o2
n3
v16
v25
o2
o2
n3
v17
v8
o2
o2
n4
v17
v9
o2
o2
n7
v17
v11
o2
o2
n9
v17
v22
o2
o2
n10
v17
v26
o2
o2
n8
v17
v28
o2
o2
n9
v18
v3
o2
o2
n7
v18
v10
o2
o2
n8
v18
v24
o2
o2
n2
v19
v9
o2
o2
n6
v19
v10
o2
o2
n10
v19
v21
o2
o2
n4
v19
v22
o2
o2
n7
v19
v26
o2
o2
n7
v19
v27
o2
o2
n3
v20
v3
o2
v20
v5
o2
o2
n10
v20
v7
o2
o2
n4
v20
v14
o2
o2
n6
v20
v20
o2
o2
n7
v20
v23
o2
o2
n2
v21
v0
o2
o2
n2
v21
v1
o2
o2
n9
v21
v14
o2
o2
n10
v21
v19
o2
o2
n7
v21
v22
o2
o2
n2
v21
v25
o2
o2
n2
v22
v0
o2
o2
n6
v22
v2
o2
o2
n9
v22
v8
o2
o2
n7
v22
v11
o2
o2
n9
v22
v17
o2
o2
n4
v22
v19
o2
o2
n7
v22
v21
o2
o2
n4
v22
v24
o2
o2
n2
v22
v25
o2
o2
n2
v22
v26
o2
o2
n2
v22
v28
o2
o2
n7
v22
v29
o2
o2
n4
v23
v0
o2
o2
n5
v23
v8
o2
o2
n5
v23
v11
o2
o2
n9
v23
v12
o2
o2
n7
v23
v15
o2
o2
n3
v23
v16
o2
o2
n7
v23
v20
o2
o2
n7
v23
v25
o2
o2
n10
v23
v26
o2
o2
n5
v24
v0
o2
o2
n10
v24
v5
o2
o2
n9
v24
v9
o2
o2
n7
v24
v12
o2
o2
n2
v24
v13
o2
o2
n8
v24
v18
o2
o2
n4
v24
v22
o2
o2
n2
v24
v25
o2
o2
n6
v24
v26
o2
o2
n5
v25
v4
o2
o2
n3
v25
v16
o2
o2
n2
v25
v21
o2
o2
n2
v25
v22
o2
o2
n7
v25
v23
o2
o2
n2
v25
v24
o2
o2
n4
v25
v25
o2
v26
v0
o2
v26
v1
o2
o2
n3
v26
v8
o2
o2
n8
v26
v11
o2
o2
n4
v26
v13
o2
o2
n10
v26
v17
o2
o2
n7
v26
v19
o2
o2
n2
v26
v22
o2
o2
n10
v26
v23
o2
o2
n6
v26
v24
o2
o2
n8
v26
v28
o2
o2
n2
v26
v29
o2
o2
n2
v27
v5
o2
o2
n5
v27
v7
o2
o2
n7
v27
v19
o2
o2
n3
v28
v4
o2
o2
n7
v28
v5
o2
v28
v12
o2
o2
n3
v28
v14
o2
o2
n10
v28
v15
o2
o2
n8
v28
v17
o2
o2
n2
v28
v22
o2
o2
n8
v28
v26
o2
o2
n5
v28
v29
o2
o2
n7
v29
v3
o2
o2
n3
v29
v6
o2
o2
n3
v29
v8
o2
o2
n7
v29
v22
o2
o2
n2
v29
v26
o2
o2
n5
v29
v28
C2
o54
206
o2
o2
n2
v0
v1
o2
o2
n8
v0
v2
o2
v0
v3
o2
o2
n9
v0
v8
o2
o2
n4
v0
v16
o2
o2
n6
v0
v18
o2
o2
n4
v0
v20
o2
o2
n4
v0
v22
o2
o2
n2
v1
v0
o2
o2
n4
v1
v1
o2
o2
n7
v1
v16
o2
o2
n10
v1
v17
o2
o2
n6
v1
v23
o2
o2
n5
v1
v26
o2
o2
n8
v2
v0
o2
o2
n8
v2
v4
o2
o2
n4
v2
v9
o2
o2
n10
v2
v11
o2
v2
v15
o2
o2
n3
v2
v18
o2
o2
n7
v2
v22
o2
o2
n3
v2
v27
o2
o2
n7
v2
v29
o2
v3
v0
o2
o2
n4
v3
v8
o2
o2
n2
v3
v10
o2
o2
n6
v3
v16
o2
o2
n2
v3
v17
o2
o2
n8
v4
v2
o2
o2
n2
v4
v9
o2
o2
n7
v4
v12
o2
o2
n7
v4
v19
o2
o2
n6
v4
v21
o2
o2
n6
v4
v22
o2
o2
n3
v4
v24
o2
o2
n9
v4
v26
o2
o2
n9
v4
v28
o2
o2
n10
v5
v6
o2
o2
n4
v5
v7
o2
o2
n10
v5
v12
o2
o2
n7
v5
v23
o2
o2
n10
v6
v5
o2
o2
n3
v6
v9
o2
o2
n6
v6
v11
o2
o2
n2
v6
v12
o2
o2
n9
v6
v19
o2
o2
n7
v6
v20
o2
o2
n7
v6
v22
o2
o2
n7
v6
v24
o2
o2
n6
v6
v27
o2
o2
n4
v7
v5
o2
o2
n10
v7
v12
o2
o2
n5
v7
v17
o2
v7
v22
o2
o2
n9
v7
v24
o2
o2
n3
v7
v25
o2
o2
n3
v7
v27
o2
o2
n6
v7
v29
o2
o2
n9
v8
v0
o2
o2
n4
v8
v3
o2
o2
n5
v8
v9
o2
o2
n2
v8
v22
o2
o2
n4
v9
v2
o2
o2
n2
v9
v4
o2
o2
n3
v9
v6
o2
o2
n5
v9
v8
o2
o2
n6
v9
v9
o2
o2
n4
v9
v19
o2
o2
n2
v9
v20
o2
o2
n2
v10
v3
o2
o2
n2
v10
v15
o2
o2
n3
v10
v19
o2
o2
n4
v10
v21
o2
v10
v22
o2
o2
n7
v10
v28
o2
o2
n10
v11
v2
o2
o2
n6
v11
v6
o2
o2
n2
v11
v16
o2
o2
n5
v11
v17
o2
o2
n6
v11
v20
o2
o2
n3
v11
v29
o2
o2
n7
v12
v4
o2
o2
n10
v12
v5
o2
o2
n2
v12
v6
o2
o2
n10
v12
v7
o2
o2
n4
v12
v14
o2
o2
n10
v12
v16
o2
o2
n6
v12
v18
o2
o2
n9
v12
v21
o2
o2
n2
v12
v25
o2
o2
n3
v12
v28
o2
o2
n9
v13
v15
o2
o2
n7
v13
v18
o2
o2
n2
v13
v22
o2
o2
n7
v13
v24
o2
o2
n4
v14
v12
o2
o2
n9
v14
v18
o2
v15
v2
o2
o2
n2
v15
v10
o2
o2
n9
v15
v13
o2
o2
n5
v15
v15
o2
o2
n3
v15
v24
o2
o2
n4
v16
v0
o2
o2
n7
v16
v1
o2
o2
n6
v16
v3
o2
o2
n2
v16
v11
o2
o2
n10
v16
v12
o2
o2
n5
v16
v19
o2
o2
n2
v16
v23
o2
o2
n5
v16
v27
o2
o2
n10
v17
v1
o2
o2
n2
v17
v3
o2
o2
n5
v17
v7
o2
o2
n5
v17
v11
o2
o2
n7
v17
v19
o2
o2
n5
v17
v25
o2
o2
n2
v17
v29
o2
o2
n6
v18
v0
o2
o2
n3
v18
v2
o2
o2
n6
v18
v12
o2
o2
n7
v18
v13
o2
o2
n9
v18
v14
o2
o2
n2
v18
v19
o2
o2
n6
v18
v20
o2
v18
v27
o2
o2
n7
v19
v4
o2
o2
n9
v19
v6
o2
o2
n4
v19
v9
o2
o2
n3
v19
v10
o2
o2
n5
v19
v16
o2
o2
n7
v19
v17
o2
o2
n2
v19
v18
o2
o2
n9
v19
v20
o2
o2
n5
v19
v22
o2
o2
n6
v19
v23
o2
o2
n6
v19
v28
o2
o2
n4
v20
v0
o2
o2
n7
v20
v6
o2
o2
n2
v20
v9
o2
o2
n6
v20
v11
o2
o2
n6
v20
v18
o2
o2
n9
v20
v19
o2
o2
n6
v20
v23
o2
o2
n4
v20
v24
o2
o2
n8
v20
v27
o2
o2
n3
v20
v28
o2
o2
n2
v20
v29
o2
o2
n6
v21
v4
o2
o2
n4
v21
v10
o2
o2
n9
v21
v12
o2
v21
v22
o2
o2
n4
v22
v0
o2
o2
n7
v22
v2
o2
o2
n6
v22
v4
o2
o2
n7
v22
v6
o2
v22
v7
o2
o2
n2
v22
v8
o2
v22
v10
o2
o2
n2
v22
v13
o2
o2
n5
v22
v19
o2
v22
v21
o2
o2
n2
v22
v27
o2
v22
v28
o2
o2
n6
v23
v1
o2
o2
n7
v23
v5
o2
o2
n2
v23
v16
o2
o2
n6
v23
v19
o2
o2
n6
v23
v20
o2
o2
n6
v23
v23
o2
o2
n3
v24
v4
o2
o2
n7
v24
v6
o2
o2
n9
v24
v7
o2
o2
n7
v24
v13
o2
o2
n3
v24
v15
o2
o2
n4
v24
v20
o2
o2
n8
v24
v28
o2
v24
v29
o2
o2
n3
v25
v7
o2
o2
n2
v25
v12
o2
o2
n5
v25
v17
o2
o2
n7
v25
v28
o2
o2
n5
v26
v1
o2
o2
n9
v26
v4
o2
o2
n2
v26
v29
o2
o2
n3
v27
v2
o2
o2
n6
v27
v6
o2
o2
n3
v27
v7
o2
o2
n5
v27
v16
o2
v27
v18
o2
o2
n8
v27
v20
o2
o2
n2
v27
v22
o2
o2
n9
v28
v4
o2
o2
n7
v28
v10
o2
o2
n3
v28
v12
o2
o2
n6
v28
v19
o2
o2
n3
v28
v20
o2
v28
v22
o2
o2
n8
v28
v24
o2
o2
n7
v28
v25
o2
o2
n7
v29
v2
o2
o2
n6
v29
v7
o2
o2
n3
v29
v11
o2
o2
n2
v29
v17
o2
o2
n2
v29
v20
o2
v29
v24
o2
o2
n2
v29
v26
C3
o54
218
o2
o2
n7
v0
v7
o2
v0
v8
o2
o2
n9
v0
v10
o2
o2
n5
v0
v20
o2
o2
n4
v0
v21
o2
o2
n4
v1
v1
o2
o2
n2
v1
v10
o2
v1
v11
o2
o2
n9
v1
v16
o2
o2
n6
v1
v25
o2
o2
n7
v1
v26
o2
o2
n8
v2
v5
o2
o2
n9
v2
v7
o2
o2
n6
v2
v13
o2
o2
n5
v2
v17
o2
v2
v23
o2
o2
n7
v3
v3
o2
o2
n3
v3
v4
o2
v3
v8
o2
o2
n7
v3
v14
o2
o2
n7
v3
v18
o2
o2
n5
v3
v22
o2
o2
n3
v3
v26
o2
o2
n3
v4
v3
o2
v4
v4
o2
o2
n8
v4
v9
o2
v4
v13
o2
o2
n3
v4
v21
o2
v4
v23
o2
o2
n10
v4
v24
o2
v4
v25
o2
o2
n8
v5
v2
o2
o2
n8
v5
v6
o2
o2
n4
v5
v12
o2
v5
v13
o2
o2
n8
v5
v14
o2
o2
n6
v5
v15
o2
o2
n2
v5
v17
o2
o2
n9
v5
v18
o2
o2
n6
v5
v26
o2
o2
n7
v5
v27
o2
o2
n8
v6
v5
o2
o2
n4
v6
v7
o2
o2
n2
v6
v10
o2
o2
n2
v6
v17
o2
o2
n5
v6
v21
o2
o2
n8
v6
v25
o2
o2
n2
v6
v26
o2
v6
v29
o2
o2
n7
v7
v0
o2
o2
n9
v7
v2
o2
o2
n4
v7
v6
o2
o2
n8
v7
v7
o2
o2
n3
v7
v8
o2
o2
n4
v7
v9
o2
o2
n7
v7
v13
o2
o2
n3
v7
v14
o2
o2
n8
v7
v20
o2
o2
n2
v7
v23
o2
o2
n7
v7
v24
o2
o2
n4
v7
v26
o2
o2
n8
v7
v28
o2
v8
v0
o2
v8
v3
o2
o2
n3
v8
v7
o2
o2
n9
v8
v18
o2
o2
n5
v8
v21
o2
o2
n7
v8
v23
o2
o2
n6
v8
v26
o2
o2
n7
v8
v28
o2
o2
n8
v9
v4
o2
o2
n4
v9
v7
o2
o2
n4
v9
v12
o2
o2
n9
v9
v15
o2
o2
n6
v9
v21
o2
o2
n5
v9
v22
o2
o2
n7
v9
v27
o2
o2
n9
v9
v28
o2
o2
n9
v10
v0
o2
o2
n2
v10
v1
o2
o2
n2
v10
v6
o2
o2
n9
v10
v17
o2
o2
n6
v10
v19
o2
v11
v1
o2
o2
n10
v11
v12
o2
o2
n3
v11
v16
o2
o2
n5
v11
v19
o2
o2
n8
v11
v25
o2
o2
n2
v11
v28
o2
o2
n4
v12
v5
o2
o2
n4
v12
v9
o2
o2
n10
v12
v11
o2
o2
n8
v12
v14
o2
o2
n5
v12
v16
o2
v12
v27
o2
o2
n6
v13
v2
o2
v13
v4
o2
v13
v5
o2
o2
n7
v13
v7
o2
o2
n4
v13
v21
o2
o2
n7
v14
v3
o2
o2
n8
v14
v5
o2
o2
n3
v14
v7
o2
o2
n8
v14
v12
o2
o2
n6
v14
v14
o2
v14
v16
o2
o2
n2
v14
v20
o2
o2
n4
v14
v24
o2
o2
n6
v15
v5
o2
o2
n9
v15
v9
o2
v15
v16
o2
o2
n3
v15
v19
o2
o2
n2
v15
v23
o2
o2
n5
v15
v24
o2
o2
n9
v16
v1
o2
o2
n3
v16
v11
o2
o2
n5
v16
v12
o2
v16
v14
o2
v16
v15
o2
o2
n5
v16
v18
o2
o2
n10
v16
v26
o2
o2
n5
v17
v2
o2
o2
n2
v17
v5
o2
o2
n2
v17
v6
o2
o2
n9
v17
v10
o2
o2
n4
v17
v24
o2
o2
n5
v17
v25
o2
o2
n7
v17
v29
o2
o2
n7
v18
v3
o2
o2
n9
v18
v5
o2
o2
n9
v18
v8
o2
o2
n5
v18
v16
o2
o2
n2
v18
v18
o2
o2
n7
v18
v22
o2
o2
n2
v18
v23
o2
o2
n9
v18
v26
o2
o2
n9
v18
v28
o2
o2
n6
v19
v10
o2
o2
n5
v19
v11
o2
o2
n3
v19
v15
o2
o2
n10
v19
v19
o2
o2
n5
v19
v20
o2
o2
n7
v19
v22
o2
o2
n6
v19
v28
o2
o2
n5
v20
v0
o2
o2
n8
v20
v7
o2
o2
n2
v20
v14
o2
o2
n5
v20
v19
o2
o2
n4
v20
v20
o2
o2
n2
v20
v23
o2
o2
n4
v21
v0
o2
o2
n3
v21
v4
o2
o2
n5
v21
v6
o2
o2
n5
v21
v8
o2
o2
n6
v21
v9
o2
o2
n4
v21
v13
o2
o2
n2
v21
v23
o2
o2
n6
v21
v28
o2
o2
n5
v22
v3
o2
o2
n5
v22
v9
o2
o2
n7
v22
v18
o2
o2
n7
v22
v19
o2
o2
n3
v22
v22
o2
v22
v23
o2
v23
v2
o2
v23
v4
o2
o2
n2
v23
v7
o2
o2
n7
v23
v8
o2
o2
n2
v23
v15
o2
o2
n2
v23
v18
o2
o2
n2
v23
v20
o2
o2
n2
v23
v21
o2
v23
v22
o2
o2
n2
v23
v27
o2
o2
n10
v24
v4
o2
o2
n7
v24
v7
o2
o2
n4
v24
v14
o2
o2
n5
v24
v15
o2
o2
n4
v24
v17
o2
o2
n2
v24
v27
o2
o2
n6
v25
v1
o2
v25
v4
o2
o2
n8
v25
v6
o2
o2
n8
v25
v11
o2
o2
n5
v25
v17
o2
o2
n4
v25
v28
o2
o2
n9
v25
v29
o2
o2
n7
v26
v1
o2
o2
n3
v26
v3
o2
o2
n6
v26
v5
o2
o2
n2
v26
v6
o2
o2
n4
v26
v7
o2
o2
n6
v26
v8
o2
o2
n10
v26
v16
o2
o2
n9
v26
v18
o2
v26
v26
o2
o2
n3
v26
v27
o2
o2
n7
v27
v5
o2
o2
n7
v27
v9
o2
v27
v12
o2
o2
n2
v27
v23
o2
o2
n2
v27
v24
o2
o2
n3
v27
v26
o2
o2
n3
v27
v28
o2
o2
n5
v27
v29
o2
o2
n8
v28
v7
o2
o2
n7
v28
v8
o2
o2
n9
v28
v9
o2
o2
n2
v28
v11
o2
o2
n9
v28
v18
o2
o2
n6
v28
v19
o2
o2
n6
v28
v21
o2
o2
n4
v28
v25
o2
o2
n3
v28
v27
o2
v29
v6
o2
o2
n7
v29
v17
o2
o2
n9
v29
v25
o2
o2
n5
v29
v27
C4
o54
210
o2
o2
n10
v0
v1
o2
o2
n2
v0
v3
o2
o2
n7
v0
v12
o2
o2
n5
v0
v17
o2
o2
n4
v0
v18
o2
v0
v19
o2
o2
n3
v0
v26
o2
o2
n10
v1
v0
o2
o2
n6
v1
v3
o2
o2
n6
v1
v5
o2
o2
n6
v1
v8
o2
o2
n7
v1
v9
o2
o2
n7
v1
v17
o2
o2
n5
v1
v19
o2
o2
n4
v1
v23
o2
o2
n9
v1
v29
o2
o2
n5
v2
v5
o2
o2
n5
v2
v6
o2
o2
n5
v2
v9
o2
v2
v11
o2
o2
n9
v2
v12
o2
o2
n6
v2
v14
o2
o2
n9
v2
v17
o2
o2
n9
v2
v18
o2
o2
n3
v2
v20
o2
o2
n2
v2
v21
o2
v2
v27
o2
o2
n7
v2
v28
o2
o2
n2
v3
v0
o2
o2
n6
v3
v1
o2
o2
n4
v3
v6
o2
o2
n7
v3
v10
o2
o2
n7
v3
v18
o2
o2
n4
v3
v20
o2
o2
n8
v3
v29
o2
o2
n8
v4
v7
o2
o2
n6
v4
v12
o2
o2
n8
v4
v13
o2
o2
n8
v4
v14
o2
o2
n10
v4
v28
o2
o2
n6
v5
v1
o2
o2
n5
v5
v2
o2
o2
n6
v5
v12
o2
o2
n6
v5
v14
o2
o2
n9
v5
v19
o2
o2
n2
v5
v23
o2
o2
n10
v5
v25
o2
o2
n5
v6
v2
o2
o2
n4
v6
v3
o2
v6
v6
o2
v6
v11
o2
o2
n3
v6
v13
o2
o2
n7
v6
v15
o2
o2
n6
v6
v16
o2
o2
n3
v6
v18
o2
o2
n3
v6
v26
o2
o2
n9
v6
v27
o2
o2
n3
v6
v29
o2
o2
n8
v7
v4
o2
o2
n5
v7
v7
o2
o2
n8
v7
v14
o2
v7
v15
o2
o2
n6
v7
v23
o2
o2
n2
v7
v29
o2
o2
n6
v8
v1
o2
o2
n2
v8
v10
o2
o2
n7
v8
v27
o2
o2
n5
v8
v28
o2
o2
n7
v9
v1
o2
o2
n5
v9
v2
o2
o2
n4
v9
v9
o2
o2
n4
v9
v11
o2
o2
n3
v9
v14
o2
o2
n6
v9
v15
o2
o2
n7
v9
v20
o2
o2
n2
v9
v22
o2
o2
n10
v9
v24
o2
o2
n7
v9
v26
o2
v9
v27
o2
o2
n3
v9
v28
o2
o2
n7
v9
v29
o2
o2
n7
v10
v3
o2
o2
n2
v10
v8
o2
o2
n10
v10
v11
o2
o2
n7
v10
v13
o2
o2
n4
v10
v26
o2
o2
n8
v10
v29
o2
v11
v2
o2
v11
v6
o2
o2
n4
v11
v9
o2
o2
n10
v11
v10
o2
o2
n7
v11
v14
o2
o2
n8
v11
v15
o2
o2
n2
v11
v18
o2
o2
n7
v11
v20
o2
o2
n6
v11
v23
o2
o2
n7
v12
v0
o2
o2
n9
v12
v2
o2
o2
n6
v12
v4
o2
o2
n6
v12
v5
o2
o2
n10
v12
v22
o2
o2
n10
v12
v25
o2
o2
n8
v13
v4
o2
o2
n3
v13
v6
o2
o2
n7
v13
v10
o2
o2
n4
v13
v13
o2
v13
v15
o2
o2
n3
v13
v19
o2
v13
v24
o2
o2
n10
v13
v25
o2
o2
n8
v13
v26
o2
v13
v28
o2
o2
n6
v14
v2
o2
o2
n8
v14
v4
o2
o2
n6
v14
v5
o2
o2
n8
v14
v7
o2
o2
n3
v14
v9
o2
o2
n7
v14
v11
o2
o2
n9
v14
v14
o2
v14
v20
o2
o2
n7
v15
v6
o2
v15
v7
o2
o2
n6
v15
v9
o2
o2
n8
v15
v11
o2
v15
v13
o2
o2
n7
v15
v18
o2
o2
n6
v16
v6
o2
o2
n8
v16
v26
o2
o2
n5
v16
v28
o2
o2
n5
v17
v0
o2
o2
n7
v17
v1
o2
o2
n9
v17
v2
o2
o2
n2
v17
v18
o2
o2
n3
v17
v21
o2
o2
n8
v17
v23
o2
o2
n6
v17
v29
o2
o2
n4
v18
v0
o2
o2
n9
v18
v2
o2
o2
n7
v18
v3
o2
o2
n3
v18
v6
o2
o2
n2
v18
v11
o2
o2
n7
v18
v15
o2
o2
n2
v18
v17
o2
o2
n2
v18
v27
o2
o2
n9
v18
v29
o2
v19
v0
o2
o2
n5
v19
v1
o2
o2
n9
v19
v5
o2
o2
n3
v19
v13
o2
o2
n8
v19
v19
o2
o2
n8
v19
v25
o2
o2
n2
v19
v29
o2
o2
n3
v20
v2
o2
o2
n4
v20
v3
o2
o2
n7
v20
v9
o2
o2
n7
v20
v11
o2
v20
v14
o2
o2
n8
v20
v26
o2
o2
n2
v21
v2
o2
o2
n3
v21
v17
o2
o2
n4
v21
v21
o2
o2
n8
v21
v24
o2
o2
n8
v21
v28
o2
o2
n6
v21
v29
o2
o2
n2
v22
v9
o2
o2
n10
v22
v12
o2
o2
n4
v23
v1
o2
o2
n2
v23
v5
o2
o2
n6
v23
v7
o2
o2
n6
v23
v11
o2
o2
n8
v23
v17
o2
o2
n8
v23
v25
o2
o2
n10
v24
v9
o2
v24
v13
o2
o2
n8
v24
v21
o2
o2
n10
v25
v5
o2
o2
n10
v25
v12
o2
o2
n10
v25
v13
o2
o2
n8
v25
v19
o2
o2
n8
v25
v23
o2
o2
n3
v26
v0
o2
o2
n3
v26
v6
o2
o2
n7
v26
v9
o2
o2
n4
v26
v10
o2
o2
n8
v26
v13
o2
o2
n8
v26
v16
o2
o2
n8
v26
v20
o2
v27
v2
o2
o2
n9
v27
v6
o2
o2
n7
v27
v8
o2
v27
v9
o2
o2
n2
v27
v18
o2
o2
n7
v28
v2
o2
o2
n10
v28
v4
o2
o2
n5
v28
v8
o2
o2
n3
v28
v9
o2
v28
v13
o2
o2
n5
v28
v16
o2
o2
n8
v28
v21
o2
o2
n9
v29
v1
o2
o2
n8
v29
v3
o2
o2
n3
v29
v6
o2
o2
n2
v29
v7
o2
o2
n7
v29
v9
o2
o2
n8
v29
v10
o2
o2
n6
v29
v17
o2
o2
n9
v29
v18
o2
o2
n2
v29
v19
o2
o2
n6
v29
v21
o2
o2
n7
v29
v29
O0 0
o54
637
o2
o2
n-3
v0
v0
o2
o2
n-3
v0
v1
o2
o2
n-4
v0
v2
o2
o2
n-3
v0
v3
o2
o2
n-3
v0
v4
o2
o2
n-3
v0
v5
o2
o2
n-4
v0
v6
o2
o2
n4
v0
v7
o2
o2
n4
v0
v9
o2
v0
v10
o2
v0
v11
o2
o2
n-3
v0
v12
o16
o2
v0
v13
o16
o2
v0
v14
o2
v0
v15
o2
o2
n-2
v0
v16
o2
o2
n-4
v0
v18
o2
o2
n5
v0
v19
o2
o2
n5
v0
v21
o2
o2
n3
v0
v23
o2
o2
n3
v0
v25
o2
o2
n5
v0
v26
o2
o2
n3
v0
v27
o2
o2
n-3
v1
v0
o2
o2
n3
v1
v2
o2
o2
n2
v1
v3
o2
o2
n3
v1
v4
o16
o2
v1
v7
o2
v1
v8
o2
v1
v9
o2
o2
n4
v1
v10
o2
o2
n3
v1
v11
o2
o2
n2
v1
v12
o2
o2
n3
v1
v13
o2
o2
n3
v1
v15
o2
o2
n2
v1
v16
o2
o2
n-3
v1
v17
o2
o2
n2
v1
v18
o2
o2
n4
v1
v19
o2
v1
v21
o2
o2
n-3
v1
v22
o2
o2
n3
v1
v24
o2
o2
n-2
v1
v26
o2
o2
n-2
v1
v27
o2
v1
v28
o16
o2
v1
v29
o2
o2
n-4
v2
v0
o2
o2
n3
v2
v1
o2
o2
n-4
v2
v3
o16
o2
v2
v5
o2
o2
n4
v2
v9
o2
o2
n-2
v2
v10
o2
o2
n-2
v2
v13
o2
o2
n-4
v2
v14
o16
o2
v2
v15
o2
v2
v18
o2
o2
n4
v2
v19
o2
v2
v20
o2
o2
n-3
v2
v21
o16
o2
v2
v23
o2
o2
n3
v2
v24
o2
o2
n-3
v2
v25
o2
o2
n-4
v2
v26
o2
o2
n4
v2
v27
o2
o2
n-5
v2
v29
o2
o2
n-3
v3
v0
o2
o2
n2
v3
v1
o2
o2
n-4
v3
v2
o2
v3
v4
o2
o2
n2
v3
v5
o2
o2
n5
v3
v7
o2
o2
n2
v3
v8
o2
o2
n3
v3
v12
o16
o2
v3
v13
o2
o2
n-4
v3
v14
o2
o2
n2
v3
v15
o16
o2
v3
v16
o16
o2
v3
v17
o2
o2
n3
v3
v18
o2
o2
n-3
v3
v19
o2
v3
v20
o2
o2
n-3
v3
v22
o2
o2
n-4
v3
v23
o2
o2
n5
v3
v25
o2
o2
n-2
v3
v26
o16
o2
v3
v27
o2
v3
v29
o2
o2
n-3
v4
v0
o2
o2
n3
v4
v1
o2
v4
v3
o2
o2
n-4
v4
v6
o2
o2
n-3
v4
v7
o2
o2
n2
v4
v8
o2
o2
n5
v4
v9
o2
o2
n2
v4
v10
o2
o2
n-4
v4
v11
o2
o2
n-4
v4
v12
o2
o2
n2
v4
v13
o16
o2
v4
v16
o2
v4
v19
o2
v4
v20
o2
o2
n3
v4
v21
o2
o2
n-3
v4
v22
o2
o2
n2
v4
v28
o2
o2
n-4
v4
v29
o2
o2
n-3
v5
v0
o16
o2
v5
v2
o2
o2
n2
v5
v3
o2
o2
n2
v5
v7
o2
o2
n4
v5
v9
o2
o2
n3
v5
v11
o2
o2
n-3
v5
v12
o2
o2
n-4
v5
v13
o16
o2
v5
v15
o2
o2
n2
v5
v16
o2
o2
n-4
v5
v17
o2
v5
v18
o2
o2
n-2
v5
v19
o2
v5
v21
o2
o2
n4
v5
v22
o2
o2
n3
v5
v23
o2
v5
v26
o2
v5
v27
o2
o2
n-2
v5
v28
o2
v5
v29
o2
o2
n-4
v6
v0
o2
o2
n-4
v6
v4
o2
o2
n-2
v6
v6
o2
o2
n3
v6
v9
o2
o2
n2
v6
v11
o2
o2
n3
v6
v12
o2
o2
n2
v6
v13
o2
o2
n-2
v6
v14
o2
o2
n-3
v6
v16
o2
o2
n2
v6
v18
o2
o2
n-4
v6
v19
o16
o2
v6
v24
o2
o2
n5
v6
v26
o2
o2
n-2
v6
v29
o2
o2
n4
v7
v0
o16
o2
v7
v1
o2
o2
n5
v7
v3
o2
o2
n-3
v7
v4
o2
o2
n2
v7
v5
o2
o2
n-3
v7
v7
o2
o2
n4
v7
v8
o2
o2
n4
v7
v9
o16
o2
v7
v10
o2
o2
n-2
v7
v12
o2
o2
n4
v7
v14
o2
o2
n-3
v7
v15
o2
o2
n-4
v7
v17
o2
o2
n-5
v7
v18
o2
o2
n-5
v7
v20
o2
o2
n3
v7
v21
o2
o2
n3
v7
v23
o2
o2
n-4
v7
v24
o2
o2
n5
v7
v27
o2
o2
n-4
v7
v28
o2
o2
n-5
v7
v29
o2
v8
v1
o2
o2
n2
v8
v3
o2
o2
n2
v8
v4
o2
o2
n4
v8
v7
o2
o2
n2
v8
v10
o2
o2
n-4
v8
v11
o2
o2
n4
v8
v12
o2
o2
n2
v8
v13
o2
o2
n3
v8
v14
o2
o2
n-3
v8
v16
o2
o2
n5
v8
v18
o16
o2
v8
v22
o2
o2
n3
v8
v23
o2
o2
n-3
v8
v24
o2
o2
n2
v8
v27
o2
o2
n3
v8
v28
o2
o2
n3
v8
v29
o2
o2
n4
v9
v0
o2
v9
v1
o2
o2
n4
v9
v2
o2
o2
n5
v9
v4
o2
o2
n4
v9
v5
o2
o2
n3
v9
v6
o2
o2
n4
v9
v7
o2
o2
n5
v9
v9
o16
o2
v9
v12
o2
o2
n-3
v9
v14
o2
o2
n3
v9
v15
o2
o2
n-4
v9
v16
o16
o2
v9
v18
o16
o2
v9
v19
o2
o2
n-5
v9
v21
o2
o2
n3
v9
v22
o2
o2
n-3
v9
v25
o2
o2
n-4
v9
v26
o2
o2
n2
v9
v27
o2
o2
n2
v9
v28
o2
o2
n4
v9
v29
o2
v10
v0
o2
o2
n4
v10
v1
o2
o2
n-2
v10
v2
o2
o2
n2
v10
v4
o16
o2
v10
v7
o2
o2
n2
v10
v8
o2
o2
n4
v10
v10
o2
v10
v11
o2
o2
n-3
v10
v12
o2
o2
n-4
v10
v13
o2
o2
n2
v10
v14
o2
o2
n-4
v10
v15
o2
o2
n3
v10
v16
o2
v10
v17
o2
o2
n2
v10
v18
o2
v10
v20
o2
o2
n-4
v10
v21
o2
v10
v22
o2
o2
n3
v10
v24
o2
o2
n5
v10
v25
o16
o2
v10
v26
o2
o2
n2
v10
v27
o2
o2
n-4
v10
v28
o2
o2
n5
v10
v29
o2
v11
v0
o2
o2
n3
v11
v1
o2
o2
n-4
v11
v4
o2
o2
n3
v11
v5
o2
o2
n2
v11
v6
o2
o2
n-4
v11
v8
o2
v11
v10
o2
o2
n-2
v11
v11
o2
o2
n-3
v11
v12
o2
o2
n3
v11
v13
o2
o2
n-2
v11
v14
o2
o2
n2
v11
v16
o2
v11
v18
o2
o2
n-4
v11
v20
o2
o2
n3
v11
v21
o2
o2
n2
v11
v22
o2
v11
v23
o2
o2
n-4
v11
v24
o2
o2
n-2
v11
v27
o2
o2
n-5
v11
v28
o2
o2
n4
v11
v29
o2
o2
n-3
v12
v0
o2
o2
n2
v12
v1
o2
o2
n3
v12
v3
o2
o2
n-4
v12
v4
o2
o2
n-3
v12
v5
o2
o2
n3
v12
v6
o2
o2
n-2
v12
v7
o2
o2
n4
v12
v8
o16
o2
v12
v9
o2
o2
n-3
v12
v10
o2
o2
n-3
v12
v11
o16
o2
v12
v12
o2
o2
n-4
v12
v13
o2
o2
n-3
v12
v15
o2
o2
n4
v12
v16
o2
o2
n-2
v12
v18
o2
o2
n4
v12
v19
o2
v12
v20
o2
o2
n-3
v12
v21
o2
o2
n-4
v12
v22
o2
v12
v24
o2
v12
v25
o2
o2
n-2
v12
v26
o2
o2
n2
v12
v27
o2
o2
n2
v12
v28
o2
o2
n-4
v12
v29
o16
o2
v13
v0
o2
o2
n3
v13
v1
o2
o2
n-2
v13
v2
o16
o2
v13
v3
o2
o2
n2
v13
v4
o2
o2
n-4
v13
v5
o2
o2
n2
v13
v6
o2
o2
n2
v13
v8
o2
o2
n-4
v13
v10
o2
o2
n3
v13
v11
o2
o2
n-4
v13
v12
o16
o2
v13
v14
o2
v13
v15
o2
o2
n-3
v13
v16
o2
o2
n-3
v13
v17
o2
o2
n3
v13
v18
o2
o2
n-4
v13
v20
o16
o2
v13
v21
o2
o2
n3
v13
v22
o2
o2
n3
v13
v23
o16
o2
v13
v24
o2
o2
n4
v13
v27
o2
v13
v28
o2
o2
n2
v13
v29
o16
o2
v14
v0
o2
o2
n-4
v14
v2
o2
o2
n-4
v14
v3
o2
o2
n-2
v14
v6
o2
o2
n4
v14
v7
o2
o2
n3
v14
v8
o2
o2
n-3
v14
v9
o2
o2
n2
v14
v10
o2
o2
n-2
v14
v11
o16
o2
v14
v13
o2
o2
n3
v14
v14
o16
o2
v14
v15
o2
o2
n-2
v14
v17
o2
o2
n-4
v14
v18
o2
v14
v24
o2
o2
n2
v14
v25
o2
v14
v26
o16
o2
v14
v28
o2
o2
n-2
v14
v29
o2
v15
v0
o2
o2
n3
v15
v1
o16
o2
v15
v2
o2
o2
n2
v15
v3
o16
o2
v15
v5
o2
o2
n-3
v15
v7
o2
o2
n3
v15
v9
o2
o2
n-4
v15
v10
o2
o2
n-3
v15
v12
o2
v15
v13
o16
o2
v15
v14
o2
o2
n4
v15
v15
o2
o2
n-5
v15
v17
o2
v15
v21
o2
v15
v22
o2
o2
n3
v15
v23
o2
o2
n2
v15
v25
o2
o2
n-5
v15
v26
o2
o2
n-5
v15
v28
o2
o2
n-2
v16
v0
o2
o2
n2
v16
v1
o16
o2
v16
v3
o16
o2
v16
v4
o2
o2
n2
v16
v5
o2
o2
n-3
v16
v6
o2
o2
n-3
v16
v8
o2
o2
n-4
v16
v9
o2
o2
n3
v16
v10
o2
o2
n2
v16
v11
o2
o2
n4
v16
v12
o2
o2
n-3
v16
v13
o2
o2
n-2
v16
v16
o2
o2
n-2
v16
v17
o2
o2
n-3
v16
v19
o2
o2
n-2
v16
v20
o2
o2
n-5
v16
v21
o2
o2
n5
v16
v22
o2
v16
v23
o2
v16
v24
o2
o2
n-5
v16
v25
o2
o2
n-2
v16
v26
o2
o2
n2
v16
v27
o16
o2
v16
v28
o2
o2
n3
v16
v29
o2
o2
n-3
v17
v1
o16
o2
v17
v3
o2
o2
n-4
v17
v5
o2
o2
n-4
v17
v7
o2
v17
v10
o2
o2
n-3
v17
v13
o2
o2
n-2
v17
v14
o2
o2
n-5
v17
v15
o2
o2
n-2
v17
v16
o2
o2
n-3
v17
v18
o2
v17
v19
o2
o2
n3
v17
v20
o2
o2
n-3
v17
v21
o2
o2
n4
v17
v23
o2
o2
n-2
v17
v24
o2
o2
n2
v17
v25
o2
o2
n-3
v17
v26
o2
o2
n-5
v17
v27
o2
o2
n4
v17
v29
o2
o2
n-4
v18
v0
o2
o2
n2
v18
v1
o2
v18
v2
o2
o2
n3
v18
v3
o2
v18
v5
o2
o2
n2
v18
v6
o2
o2
n-5
v18
v7
o2
o2
n5
v18
v8
o16
o2
v18
v9
o2
o2
n2
v18
v10
o2
v18
v11
o2
o2
n-2
v18
v12
o2
o2
n3
v18
v13
o2
o2
n-4
v18
v14
o2
o2
n-3
v18
v17
o2
o2
n2
v18
v18
o2
o2
n4
v18
v19
o2
o2
n5
v18
v20
o2
o2
n4
v18
v21
o2
o2
n-2
v18
v22
o2
o2
n-5
v18
v25
o2
o2
n-4
v18
v27
o2
o2
n-2
v18
v28
o2
o2
n-3
v18
v29
o2
o2
n5
v19
v0
o2
o2
n4
v19
v1
o2
o2
n4
v19
v2
o2
o2
n-3
v19
v3
o2
v19
v4
o2
o2
n-2
v19
v5
o2
o2
n-4
v19
v6
o16
o2
v19
v9
o2
o2
n4
v19
v12
o2
o2
n-3
v19
v16
o2
v19
v17
o2
o2
n4
v19
v18
o2
o2
n-2
v19
v19
o16
o2
v19
v20
o16
o2
v19
v22
o16
o2
v19
v23
o2
o2
n-4
v19
v24
o2
o2
n-4
v19
v25
o2
o2
n3
v19
v26
o2
o2
n-4
v19
v27
o2
v20
v2
o2
v20
v3
o2
v20
v4
o2
o2
n-5
v20
v7
o2
v20
v10
o2
o2
n-4
v20
v11
o2
v20
v12
o2
o2
n-4
v20
v13
o2
o2
n-2
v20
v16
o2
o2
n3
v20
v17
o2
o2
n5
v20
v18
o16
o2
v20
v19
o2
o2
n2
v20
v21
o2
o2
n-4
v20
v22
o2
v20
v23
o16
o2
v20
v25
o2
o2
n-4
v20
v26
o2
o2
n2
v20
v27
o2
o2
n5
v20
v29
o2
o2
n5
v21
v0
o2
v21
v1
o2
o2
n-3
v21
v2
o2
o2
n3
v21
v4
o2
v21
v5
o2
o2
n3
v21
v7
o2
o2
n-5
v21
v9
o2
o2
n-4
v21
v10
o2
o2
n3
v21
v11
o2
o2
n-3
v21
v12
o16
o2
v21
v13
o2
v21
v15
o2
o2
n-5
v21
v16
o2
o2
n-3
v21
v17
o2
o2
n4
v21
v18
o2
o2
n2
v21
v20
o2
o2
n4
v21
v21
o16
o2
v21
v22
o2
o2
n-4
v21
v23
o2
o2
n3
v21
v24
o2
o2
n4
v21
v25
o2
o2
n3
v21
v26
o2
o2
n-3
v21
v27
o2
o2
n3
v21
v29
o2
o2
n-3
v22
v1
o2
o2
n-3
v22
v3
o2
o2
n-3
v22
v4
o2
o2
n4
v22
v5
o16
o2
v22
v8
o2
o2
n3
v22
v9
o2
v22
v10
o2
o2
n2
v22
v11
o2
o2
n-4
v22
v12
o2
o2
n3
v22
v13
o2
v22
v15
o2
o2
n5
v22
v16
o2
o2
n-2
v22
v18
o16
o2
v22
v19
o2
o2
n-4
v22
v20
o16
o2
v22
v21
o2
o2
n-4
v22
v22
o2
v22
v23
o2
o2
n-2
v22
v24
o2
o2
n-3
v22
v25
o2
o2
n3
v22
v26
o2
o2
n-5
v22
v27
o2
o2
n4
v22
v29
o2
o2
n3
v23
v0
o16
o2
v23
v2
o2
o2
n-4
v23
v3
o2
o2
n3
v23
v5
o2
o2
n3
v23
v7
o2
o2
n3
v23
v8
o2
v23
v11
o2
o2
n3
v23
v13
o2
o2
n3
v23
v15
o2
v23
v16
o2
o2
n4
v23
v17
o16
o2
v23
v19
o2
v23
v20
o2
o2
n-4
v23
v21
o2
v23
v22
o2
o2
n-4
v23
v23
o16
o2
v23
v24
o2
o2
n-3
v23
v25
o16
o2
v23
v26
o2
o2
n-4
v23
v27
o2
o2
n3
v24
v1
o2
o2
n3
v24
v2
o16
o2
v24
v6
o2
o2
n-4
v24
v7
o2
o2
n-3
v24
v8
o2
o2
n3
v24
v10
o2
o2
n-4
v24
v11
o2
v24
v12
o16
o2
v24
v13
o2
v24
v14
o2
v24
v16
o2
o2
n-2
v24
v17
o2
o2
n-4
v24
v19
o2
o2
n3
v24
v21
o2
o2
n-2
v24
v22
o16
o2
v24
v23
o2
o2
n-5
v24
v24
o2
o2
n-3
v24
v25
o2
o2
n-5
v24
v26
o2
v24
v27
o16
o2
v24
v28
o2
o2
n3
v25
v0
o2
o2
n-3
v25
v2
o2
o2
n5
v25
v3
o2
o2
n-3
v25
v9
o2
o2
n5
v25
v10
o2
v25
v12
o2
o2
n2
v25
v14
o2
o2
n2
v25
v15
o2
o2
n-5
v25
v16
o2
o2
n2
v25
v17
o2
o2
n-5
v25
v18
o2
o2
n-4
v25
v19
o16
o2
v25
v20
o2
o2
n4
v25
v21
o2
o2
n-3
v25
v22
o2
o2
n-3
v25
v23
o2
o2
n-3
v25
v24
o2
o2
n4
v25
v25
o2
o2
n-2
v25
v26
o16
o2
v25
v29
o2
o2
n5
v26
v0
o2
o2
n-2
v26
v1
o2
o2
n-4
v26
v2
o2
o2
n-2
v26
v3
o2
v26
v5
o2
o2
n5
v26
v6
o2
o2
n-4
v26
v9
o16
o2
v26
v10
o2
o2
n-2
v26
v12
o2
v26
v14
o2
o2
n-5
v26
v15
o2
o2
n-2
v26
v16
o2
o2
n-3
v26
v17
o2
o2
n3
v26
v19
o2
o2
n-4
v26
v20
o2
o2
n3
v26
v21
o2
o2
n3
v26
v22
o16
o2
v26
v23
o2
o2
n-5
v26
v24
o2
o2
n-2
v26
v25
o2
o2
n3
v26
v26
o16
o2
v26
v27
o2
o2
n-2
v26
v28
o2
o2
n2
v26
v29
o2
o2
n3
v27
v0
o2
o2
n-2
v27
v1
o2
o2
n4
v27
v2
o16
o2
v27
v3
o2
v27
v5
o2
o2
n5
v27
v7
o2
o2
n2
v27
v8
o2
o2
n2
v27
v9
o2
o2
n2
v27
v10
o2
o2
n-2
v27
v11
o2
o2
n2
v27
v12
o2
o2
n4
v27
v13
o2
o2
n2
v27
v16
o2
o2
n-5
v27
v17
o2
o2
n-4
v27
v18
o2
o2
n-4
v27
v19
o2
o2
n2
v27
v20
o2
o2
n-3
v27
v21
o2
o2
n-5
v27
v22
o2
o2
n-4
v27
v23
o2
v27
v24
o16
o2
v27
v26
o2
o2
n-4
v27
v28
o2
o2
n-3
v27
v29
o2
v28
v1
o2
o2
n2
v28
v4
o2
o2
n-2
v28
v5
o2
o2
n-4
v28
v7
o2
o2
n3
v28
v8
o2
o2
n2
v28
v9
o2
o2
n-4
v28
v10
o2
o2
n-5
v28
v11
o2
o2
n2
v28
v12
o2
v28
v13
o16
o2
v28
v14
o2
o2
n-5
v28
v15
o16
o2
v28
v16
o2
o2
n-2
v28
v18
o16
o2
v28
v24
o2
o2
n-2
v28
v26
o2
o2
n-4
v28
v27
o16
o2
v28
v29
o16
o2
v29
v1
o2
o2
n-5
v29
v2
o2
v29
v3
o2
o2
n-4
v29
v4
o2
v29
v5
o2
o2
n-2
v29
v6
o2
o2
n-5
v29
v7
o2
o2
n3
v29
v8
o2
o2
n4
v29
v9
o2
o2
n5
v29
v10
o2
o2
n4
v29
v11
o2
o2
n-4
v29
v12
o2
o2
n2
v29
v13
o2
o2
n-2
v29
v14
o2
o2
n3
v29
v16
o2
o2
n4
v29
v17
o2
o2
n-3
v29
v18
o2
o2
n5
v29
v20
o2
o2
n3
v29
v21
o2
o2
n4
v29
v22
o16
o2
v29
v25
o2
o2
n2
v29
v26
o2
o2
n-3
v29
v27
o16
o2
v29
v28
o2
o2
n-5
v29
v29
k29
5
10
15
20
25
30
35
40
45
50
55
60
65
70
75
80
85
90
95
100
105
110
115
120
125
130
135
140
145
J0 30
0 0
1 0
2 0
3 0
4 0
5 0
6 0
7 0
8 0
9 0
10 0
11 0
12 0
13 0
14 0
15 0
16 0
17 0
18 0
19 0
20 0
21 0
22 0
23 0
24 0
25 0
26 0
27 0
28 0
29 0
J1 30
0 0
1 0
2 0
3 0
4 0
5 0
6 0
7 0
8 0
9 0
10 0
11 0
12 0
13 0
14 0
15 0
16 0
17 0
18 0
19 0
20 0
21 0
22 0
23 0
24 0
25 0
26 0
27 0
28 0
29 0
J2 30
0 0
1 0
2 0
3 0
4 0
5 0
6 0
7 0
8 0
9 0
10 0
11 0
12 0
13 0
14 0
15 0
16 0
17 0
18 0
19 0
20 0
21 0
22 0
23 0
24 0
25 0
26 0
27 0
28 0
29 0
J3 30
0 0
1 0
2 0
3 0
4 0
5 0
6 0
7 0
8 0
9 0
10 0
11 0
12 0
13 0
14 0
15 0
16 0
17 0
18 0
19 0
20 0
21 0
22 0
23 0
24 0
25 0
26 0
27 0
28 0
29 0
J4 30
0 0
1 0
2 0
3 0
4 0
5 0
6 0
7 0
8 0
9 0
10 0
11 0
12 0
13 0
14 0
15 0
16 0
17 0
18 0
19 0
20 0
21 0
22 0
23 0
24 0
25 0
26 0
27 0
28 0
29 0
G0 30
0 0
1 0
2 0
3 0
4 0
5 0
6 0
7 0
8 0
9 0
10 0
11 0
12 0
13 0
14 0
15 0
16 0
17 0
18 0
19 0
20 0
21 0
22 0
23 0
24 0
25 0
26 0
27 0
28 0
29 0
